p tw 106 121
1 2
2 19
3 10
4 5
5 6
6 7
7 8
8 9
10 11
11 12
12 13
12 17
13 14
14 15
15 16
15 17
16 8
17 18
18 20
19 30
19 63
20 21
21 22
21 23
22 8
23 24
24 25
25 26
26 27
27 28
28 29
29 31
30 41
30 63
31 32
32 33
33 34
34 35
35 36
35 40
36 37
37 38
38 39
38 40
39 8
40 42
41 52
41 63
42 43
43 44
44 45
45 46
46 47
47 48
48 49
49 50
49 70
50 51
51 53
52 63
52 85
53 54
54 55
55 56
56 57
57 58
58 59
59 60
60 61
61 62
62 64
63 74
64 65
65 66
65 68
66 67
67 68
68 69
69 8
70 71
71 72
72 73
73 75
74 8
75 76
76 77
77 78
78 79
79 80
80 81
81 82
82 83
82 89
83 84
84 86
85 96
86 87
87 88
88 89
89 90
90 91
91 92
91 73
92 93
93 94
93 97
94 95
95 97
95 73
96 3
97 98
98 99
99 100
99 104
100 101
101 102
102 103
103 104
104 105
105 106
106 4
